Maximize
  - 3.7572093302604 edge_0_1_0_0 - 2.32534 edge_0_2_0_0
   - 2.0632763668537 edge_0_3_0_0 - 1.7689348741077 edge_0_5_0_0
   - 3.5107167589012 edge_0_6_0_0 - 2.7398047572252 edge_0_7_0_0
   - 3.9940533902562 edge_0_9_0_0 - 2.4952850842787 edge_0_11_0_0
   - 2.3817434360055 edge_0_13_0_0 - 2.797873603616 edge_0_16_0_0
   + 0.25162292254708 edge_1_2_0_0 - 0.1455263773508381 edge_1_3_0_0
   - 0.5559860564636886 edge_1_5_0_0 - 0.4859873047854128 edge_1_7_0_0
   + 0.72811115225828 edge_2_1_0_0 + 2.801584280275 edge_2_3_0_0
   + 0.85596293594592 edge_2_4_0_0 + 0.9746489572614001 edge_2_5_0_0
   + 0.85546133680846 edge_2_6_0_0 + 1.6348353814793 edge_2_7_0_0
   + 0.74725793088225 edge_2_8_0_0 + 0.19540084607034 edge_2_9_0_0
   + 0.069783257777038 edge_2_10_0_0 + 0.22815855052677 edge_2_11_0_0
   - 0.02237845439998 edge_2_12_0_0 + 0.54033643621615 edge_2_13_0_0
   + 0.082751259430602 edge_2_14_0_0 + 0.17522090082846 edge_2_15_0_0
   + 0.1415731103136 edge_2_16_0_0 + 0.8126692279635001 edge_2_17_0_0
   - 1.009842351437088 edge_3_1_0_0 + 1.7553200445494 edge_3_2_0_0
   + 0.188826506724957 edge_3_4_0_0 - 0.097972431315546 edge_3_5_0_0
   + 1.038454676339633 edge_3_6_0_0 + 2.197840138441889 edge_3_7_0_0
   + 0.8648544025042015 edge_3_8_0_0 - 1.200135028298002 edge_3_9_0_0
   - 0.4893648843271262 edge_3_10_0_0 + 0.192031678560028 edge_3_11_0_0
   - 1.2144494463394 edge_3_13_0_0 - 1.526710554536419 edge_3_16_0_0
   + 1.77569506331549 edge_3_17_0_0 - 0.6527651545562401 edge_4_2_0_0
   - 0.418628500039552 edge_4_3_0_0 + 0.0288580363022915 edge_4_5_0_0
   - 0.1215555720434259 edge_4_6_0_0 - 0.0182212049470424 edge_4_8_0_0
   - 0.4179224867422878 edge_5_1_0_0 - 0.027334917700851 edge_5_2_0_0
   + 0.151738 edge_5_3_0_0 + 2.871343462202615 edge_5_4_0_0
   + 0.0993681015119972 edge_5_6_0_0 + 1.019863952165517 edge_5_7_0_0
   + 1.568721808427385 edge_5_8_0_0 - 0.06137755109786 edge_5_9_0_0
   - 0.4958158285952335 edge_5_11_0_0 + 0.8898376701862823 edge_5_12_0_0
   + 1.333175925313007 edge_5_13_0_0 + 0.630856959616842 edge_5_15_0_0
   + 1.018832589011873 edge_5_16_0_0 + 0.6899211396053847 edge_5_17_0_0
   + 0.2693832166713 edge_6_2_0_0 + 0.7718982142712734 edge_6_3_0_0
   + 1.580009970419952 edge_6_4_0_0 + 1.4980474091883 edge_6_5_0_0
   + 1.064318375060114 edge_6_7_0_0 + 2.041059730295137 edge_6_8_0_0
   + 0.5054196746600038 edge_6_9_0_0 + 0.3484835426179757 edge_6_10_0_0
   + 0.8289898789265813 edge_6_11_0_0 - 0.57363920248334 edge_6_13_0_0
   - 0.8773527879169543 edge_6_16_0_0 + 0.4463980180414974 edge_6_17_0_0
   - 0.3230964547849983 edge_7_1_0_0 + 0.7542570751805701 edge_7_2_0_0
   + 1.428611814397526 edge_7_3_0_0 + 2.91935284534556 edge_7_4_0_0
   + 2.51549918377499 edge_7_5_0_0 + 2.483402988445182 edge_7_6_0_0
   + 2.370727895111585 edge_7_8_0_0 + 0.3392748513809224 edge_7_9_0_0
   + 0.210653089780986 edge_7_10_0_0 + 0.8652591203517249 edge_7_11_0_0
   + 1.245221497723327 edge_7_12_0_0 + 2.021707725894842 edge_7_13_0_0
   - 0.3611927183440115 edge_7_14_0_0 + 0.9333029902299874 edge_7_15_0_0
   + 1.917942168659232 edge_7_16_0_0 + 1.189681857137262 edge_7_17_0_0
   - 0.6018727781521054 edge_8_5_0_0 - 0.6242868238270343 edge_8_11_0_0
   + 0.282679308191942 edge_8_13_0_0 - 1.002959114907 edge_9_2_0_0
   - 1.125412034463561 edge_9_3_0_0 - 0.9616044885748708 edge_9_4_0_0
   - 0.9026095851952876 edge_9_5_0_0 - 0.7007792430246398 edge_9_6_0_0
   - 1.021962399845052 edge_9_7_0_0 - 0.4300440175540655 edge_9_8_0_0
   + 0.2269615227663607 edge_9_10_0_0 + 0.1796456323381271 edge_9_11_0_0
   + 0.071644877710576 edge_9_13_0_0 - 0.8864301002016305 edge_9_16_0_0
   - 0.226010902790925 edge_9_17_0_0 - 1.109311148036321 edge_10_9_0_0
   - 0.0886624950515 edge_10_13_0_0 - 0.8760540407017513 edge_10_16_0_0
   - 0.8562831785309263 edge_10_17_0_0 + 0.69827462439628 edge_11_2_0_0
   + 0.0730976675487042 edge_11_3_0_0 - 0.4197363016072169 edge_11_4_0_0
   + 0.5962717808303977 edge_11_5_0_0 + 0.8234449265580589 edge_11_6_0_0
   + 0.9796548073289877 edge_11_7_0_0 + 1.778617549826524 edge_11_8_0_0
   + 3.662345449752851 edge_11_9_0_0 + 3.792867581357945 edge_11_10_0_0
   + 0.8888491378987488 edge_11_12_0_0 + 3.303593491908 edge_11_13_0_0
   + 0.821296855158568 edge_11_14_0_0 + 2.293319198428079 edge_11_16_0_0
   + 3.280933339692188 edge_11_17_0_0 - 1.422524235790785 edge_12_1_0_0
   - 1.6093907620966 edge_12_2_0_0 - 0.9586240152692026 edge_12_3_0_0
   - 0.2985012453765489 edge_12_5_0_0 - 0.9548614045319189 edge_12_7_0_0
   - 0.3357780063370694 edge_12_8_0_0 + 1.75717307702992 edge_12_9_0_0
   + 0.1870761977167618 edge_12_15_0_0 + 0.029497082306273 edge_12_16_0_0
   - 1.703896839239265 edge_12_17_0_0 - 1.182972483144611 edge_13_1_0_0
   - 0.0986448 edge_13_2_0_0 - 0.14212899603203 edge_13_3_0_0
   + 1.451784594278295 edge_13_4_0_0 + 0.5017951485344752 edge_13_5_0_0
   - 0.69157842172054 edge_13_6_0_0 + 0.1122616096971229 edge_13_7_0_0
   + 0.7677082951147046 edge_13_8_0_0 + 3.350044470348184 edge_13_9_0_0
   + 1.3479198895278 edge_13_10_0_0 + 0.82458937555573 edge_13_11_0_0
   + 3.795053277794312 edge_13_12_0_0 + 0.6399711923415063 edge_13_14_0_0
   + 0.4357932591073599 edge_13_15_0_0 + 2.69836498708516 edge_13_16_0_0
   + 1.252799924832 edge_13_17_0_0 + 0.3425492085957763 edge_14_13_0_0
   + 0.8837796694194383 edge_14_15_0_0 + 1.790812904246345 edge_14_16_0_0
   + 0.0848961085719042 edge_14_17_0_0 - 1.34524013671329 edge_15_1_0_0
   - 1.2186454004532 edge_15_2_0_0 - 0.8764080871178324 edge_15_3_0_0
   - 0.1564861158691227 edge_15_5_0_0 - 0.6226272820017709 edge_15_7_0_0
   - 0.6202709162137512 edge_15_8_0_0 + 0.5339915835160098 edge_15_12_0_0
   + 0.3535158533764892 edge_15_13_0_0 + 0.8451386032654568 edge_15_14_0_0
   - 1.32934281139033 edge_15_17_0_0 - 2.086245674753807 edge_16_1_0_0
   - 0.3850229450342399 edge_16_2_0_0 - 0.7234337002985701 edge_16_3_0_0
   + 0.1254446870014821 edge_16_4_0_0 - 0.0443139439255146 edge_16_5_0_0
   - 1.110109609296936 edge_16_6_0_0 - 0.3284742414041896 edge_16_7_0_0
   + 0.087890335099222 edge_16_8_0_0 + 1.738690047655985 edge_16_9_0_0
   + 0.2685413890429779 edge_16_10_0_0 - 0.7883832867014855 edge_16_11_0_0
   + 1.77984256004445 edge_16_12_0_0 + 0.3419870864889483 edge_16_13_0_0
   + 3.854014761582637 edge_16_14_0_0 + 3.517291535174599 edge_16_15_0_0
   + 0.4522727336328744 edge_16_17_0_0
Subject To
 one_parent_1: edge_0_1_0_0 + edge_2_1_0_0 + edge_3_1_0_0 + edge_5_1_0_0
   + edge_7_1_0_0 + edge_12_1_0_0 + edge_13_1_0_0 + edge_15_1_0_0
   + edge_16_1_0_0 = 1
 consume_one_flow_unit_1: flow_0_1_0_0 - flow_1_2_0_0 - flow_1_3_0_0
   - flow_1_5_0_0 - flow_1_7_0_0 + flow_2_1_0_0 + flow_3_1_0_0
   + flow_5_1_0_0 + flow_7_1_0_0 + flow_12_1_0_0 + flow_13_1_0_0
   + flow_15_1_0_0 + flow_16_1_0_0 = 1
 one_parent_2: edge_0_2_0_0 + edge_1_2_0_0 + edge_3_2_0_0 + edge_4_2_0_0
   + edge_5_2_0_0 + edge_6_2_0_0 + edge_7_2_0_0 + edge_9_2_0_0
   + edge_11_2_0_0 + edge_12_2_0_0 + edge_13_2_0_0 + edge_15_2_0_0
   + edge_16_2_0_0 = 1
 consume_one_flow_unit_2: flow_0_2_0_0 + flow_1_2_0_0 - flow_2_1_0_0
   - flow_2_3_0_0 - flow_2_4_0_0 - flow_2_5_0_0 - flow_2_6_0_0
   - flow_2_7_0_0 - flow_2_8_0_0 - flow_2_9_0_0 - flow_2_10_0_0
   - flow_2_11_0_0 - flow_2_12_0_0 - flow_2_13_0_0 - flow_2_14_0_0
   - flow_2_15_0_0 - flow_2_16_0_0 - flow_2_17_0_0 + flow_3_2_0_0
   + flow_4_2_0_0 + flow_5_2_0_0 + flow_6_2_0_0 + flow_7_2_0_0
   + flow_9_2_0_0 + flow_11_2_0_0 + flow_12_2_0_0 + flow_13_2_0_0
   + flow_15_2_0_0 + flow_16_2_0_0 = 1
 one_parent_3: edge_0_3_0_0 + edge_1_3_0_0 + edge_2_3_0_0 + edge_4_3_0_0
   + edge_5_3_0_0 + edge_6_3_0_0 + edge_7_3_0_0 + edge_9_3_0_0
   + edge_11_3_0_0 + edge_12_3_0_0 + edge_13_3_0_0 + edge_15_3_0_0
   + edge_16_3_0_0 = 1
 consume_one_flow_unit_3: flow_0_3_0_0 + flow_1_3_0_0 + flow_2_3_0_0
   - flow_3_1_0_0 - flow_3_2_0_0 - flow_3_4_0_0 - flow_3_5_0_0
   - flow_3_6_0_0 - flow_3_7_0_0 - flow_3_8_0_0 - flow_3_9_0_0
   - flow_3_10_0_0 - flow_3_11_0_0 - flow_3_13_0_0 - flow_3_16_0_0
   - flow_3_17_0_0 + flow_4_3_0_0 + flow_5_3_0_0 + flow_6_3_0_0
   + flow_7_3_0_0 + flow_9_3_0_0 + flow_11_3_0_0 + flow_12_3_0_0
   + flow_13_3_0_0 + flow_15_3_0_0 + flow_16_3_0_0 = 1
 one_parent_4: edge_2_4_0_0 + edge_3_4_0_0 + edge_5_4_0_0 + edge_6_4_0_0
   + edge_7_4_0_0 + edge_9_4_0_0 + edge_11_4_0_0 + edge_13_4_0_0
   + edge_16_4_0_0 = 1
 consume_one_flow_unit_4: flow_2_4_0_0 + flow_3_4_0_0 - flow_4_2_0_0
   - flow_4_3_0_0 - flow_4_5_0_0 - flow_4_6_0_0 - flow_4_8_0_0
   + flow_5_4_0_0 + flow_6_4_0_0 + flow_7_4_0_0 + flow_9_4_0_0
   + flow_11_4_0_0 + flow_13_4_0_0 + flow_16_4_0_0 = 1
 one_parent_5: edge_0_5_0_0 + edge_1_5_0_0 + edge_2_5_0_0 + edge_3_5_0_0
   + edge_4_5_0_0 + edge_6_5_0_0 + edge_7_5_0_0 + edge_8_5_0_0
   + edge_9_5_0_0 + edge_11_5_0_0 + edge_12_5_0_0 + edge_13_5_0_0
   + edge_15_5_0_0 + edge_16_5_0_0 = 1
 consume_one_flow_unit_5: flow_0_5_0_0 + flow_1_5_0_0 + flow_2_5_0_0
   + flow_3_5_0_0 + flow_4_5_0_0 - flow_5_1_0_0 - flow_5_2_0_0
   - flow_5_3_0_0 - flow_5_4_0_0 - flow_5_6_0_0 - flow_5_7_0_0
   - flow_5_8_0_0 - flow_5_9_0_0 - flow_5_11_0_0 - flow_5_12_0_0
   - flow_5_13_0_0 - flow_5_15_0_0 - flow_5_16_0_0 - flow_5_17_0_0
   + flow_6_5_0_0 + flow_7_5_0_0 + flow_8_5_0_0 + flow_9_5_0_0
   + flow_11_5_0_0 + flow_12_5_0_0 + flow_13_5_0_0 + flow_15_5_0_0
   + flow_16_5_0_0 = 1
 one_parent_6: edge_0_6_0_0 + edge_2_6_0_0 + edge_3_6_0_0 + edge_4_6_0_0
   + edge_5_6_0_0 + edge_7_6_0_0 + edge_9_6_0_0 + edge_11_6_0_0
   + edge_13_6_0_0 + edge_16_6_0_0 = 1
 consume_one_flow_unit_6: flow_0_6_0_0 + flow_2_6_0_0 + flow_3_6_0_0
   + flow_4_6_0_0 + flow_5_6_0_0 - flow_6_2_0_0 - flow_6_3_0_0
   - flow_6_4_0_0 - flow_6_5_0_0 - flow_6_7_0_0 - flow_6_8_0_0
   - flow_6_9_0_0 - flow_6_10_0_0 - flow_6_11_0_0 - flow_6_13_0_0
   - flow_6_16_0_0 - flow_6_17_0_0 + flow_7_6_0_0 + flow_9_6_0_0
   + flow_11_6_0_0 + flow_13_6_0_0 + flow_16_6_0_0 = 1
 one_parent_7: edge_0_7_0_0 + edge_1_7_0_0 + edge_2_7_0_0 + edge_3_7_0_0
   + edge_5_7_0_0 + edge_6_7_0_0 + edge_9_7_0_0 + edge_11_7_0_0
   + edge_12_7_0_0 + edge_13_7_0_0 + edge_15_7_0_0 + edge_16_7_0_0 = 1
 consume_one_flow_unit_7: flow_0_7_0_0 + flow_1_7_0_0 + flow_2_7_0_0
   + flow_3_7_0_0 + flow_5_7_0_0 + flow_6_7_0_0 - flow_7_1_0_0
   - flow_7_2_0_0 - flow_7_3_0_0 - flow_7_4_0_0 - flow_7_5_0_0
   - flow_7_6_0_0 - flow_7_8_0_0 - flow_7_9_0_0 - flow_7_10_0_0
   - flow_7_11_0_0 - flow_7_12_0_0 - flow_7_13_0_0 - flow_7_14_0_0
   - flow_7_15_0_0 - flow_7_16_0_0 - flow_7_17_0_0 + flow_9_7_0_0
   + flow_11_7_0_0 + flow_12_7_0_0 + flow_13_7_0_0 + flow_15_7_0_0
   + flow_16_7_0_0 = 1
 one_parent_8: edge_2_8_0_0 + edge_3_8_0_0 + edge_4_8_0_0 + edge_5_8_0_0
   + edge_6_8_0_0 + edge_7_8_0_0 + edge_9_8_0_0 + edge_11_8_0_0
   + edge_12_8_0_0 + edge_13_8_0_0 + edge_15_8_0_0 + edge_16_8_0_0 = 1
 consume_one_flow_unit_8: flow_2_8_0_0 + flow_3_8_0_0 + flow_4_8_0_0
   + flow_5_8_0_0 + flow_6_8_0_0 + flow_7_8_0_0 - flow_8_5_0_0
   - flow_8_11_0_0 - flow_8_13_0_0 + flow_9_8_0_0 + flow_11_8_0_0
   + flow_12_8_0_0 + flow_13_8_0_0 + flow_15_8_0_0 + flow_16_8_0_0 = 1
 one_parent_9: edge_0_9_0_0 + edge_2_9_0_0 + edge_3_9_0_0 + edge_5_9_0_0
   + edge_6_9_0_0 + edge_7_9_0_0 + edge_10_9_0_0 + edge_11_9_0_0
   + edge_12_9_0_0 + edge_13_9_0_0 + edge_16_9_0_0 = 1
 consume_one_flow_unit_9: flow_0_9_0_0 + flow_2_9_0_0 + flow_3_9_0_0
   + flow_5_9_0_0 + flow_6_9_0_0 + flow_7_9_0_0 - flow_9_2_0_0
   - flow_9_3_0_0 - flow_9_4_0_0 - flow_9_5_0_0 - flow_9_6_0_0
   - flow_9_7_0_0 - flow_9_8_0_0 - flow_9_10_0_0 - flow_9_11_0_0
   - flow_9_13_0_0 - flow_9_16_0_0 - flow_9_17_0_0 + flow_10_9_0_0
   + flow_11_9_0_0 + flow_12_9_0_0 + flow_13_9_0_0 + flow_16_9_0_0 = 1
 one_parent_10: edge_2_10_0_0 + edge_3_10_0_0 + edge_6_10_0_0
   + edge_7_10_0_0 + edge_9_10_0_0 + edge_11_10_0_0 + edge_13_10_0_0
   + edge_16_10_0_0 = 1
 consume_one_flow_unit_10: flow_2_10_0_0 + flow_3_10_0_0 + flow_6_10_0_0
   + flow_7_10_0_0 + flow_9_10_0_0 - flow_10_9_0_0 - flow_10_13_0_0
   - flow_10_16_0_0 - flow_10_17_0_0 + flow_11_10_0_0 + flow_13_10_0_0
   + flow_16_10_0_0 = 1
 one_parent_11: edge_0_11_0_0 + edge_2_11_0_0 + edge_3_11_0_0
   + edge_5_11_0_0 + edge_6_11_0_0 + edge_7_11_0_0 + edge_8_11_0_0
   + edge_9_11_0_0 + edge_13_11_0_0 + edge_16_11_0_0 = 1
 consume_one_flow_unit_11: flow_0_11_0_0 + flow_2_11_0_0 + flow_3_11_0_0
   + flow_5_11_0_0 + flow_6_11_0_0 + flow_7_11_0_0 + flow_8_11_0_0
   + flow_9_11_0_0 - flow_11_2_0_0 - flow_11_3_0_0 - flow_11_4_0_0
   - flow_11_5_0_0 - flow_11_6_0_0 - flow_11_7_0_0 - flow_11_8_0_0
   - flow_11_9_0_0 - flow_11_10_0_0 - flow_11_12_0_0 - flow_11_13_0_0
   - flow_11_14_0_0 - flow_11_16_0_0 - flow_11_17_0_0 + flow_13_11_0_0
   + flow_16_11_0_0 = 1
 one_parent_12: edge_2_12_0_0 + edge_5_12_0_0 + edge_7_12_0_0
   + edge_11_12_0_0 + edge_13_12_0_0 + edge_15_12_0_0 + edge_16_12_0_0 = 1
 consume_one_flow_unit_12: flow_2_12_0_0 + flow_5_12_0_0 + flow_7_12_0_0
   + flow_11_12_0_0 - flow_12_1_0_0 - flow_12_2_0_0 - flow_12_3_0_0
   - flow_12_5_0_0 - flow_12_7_0_0 - flow_12_8_0_0 - flow_12_9_0_0
   - flow_12_15_0_0 - flow_12_16_0_0 - flow_12_17_0_0 + flow_13_12_0_0
   + flow_15_12_0_0 + flow_16_12_0_0 = 1
 one_parent_13: edge_0_13_0_0 + edge_2_13_0_0 + edge_3_13_0_0
   + edge_5_13_0_0 + edge_6_13_0_0 + edge_7_13_0_0 + edge_8_13_0_0
   + edge_9_13_0_0 + edge_10_13_0_0 + edge_11_13_0_0 + edge_14_13_0_0
   + edge_15_13_0_0 + edge_16_13_0_0 = 1
 consume_one_flow_unit_13: flow_0_13_0_0 + flow_2_13_0_0 + flow_3_13_0_0
   + flow_5_13_0_0 + flow_6_13_0_0 + flow_7_13_0_0 + flow_8_13_0_0
   + flow_9_13_0_0 + flow_10_13_0_0 + flow_11_13_0_0 - flow_13_1_0_0
   - flow_13_2_0_0 - flow_13_3_0_0 - flow_13_4_0_0 - flow_13_5_0_0
   - flow_13_6_0_0 - flow_13_7_0_0 - flow_13_8_0_0 - flow_13_9_0_0
   - flow_13_10_0_0 - flow_13_11_0_0 - flow_13_12_0_0 - flow_13_14_0_0
   - flow_13_15_0_0 - flow_13_16_0_0 - flow_13_17_0_0 + flow_14_13_0_0
   + flow_15_13_0_0 + flow_16_13_0_0 = 1
 one_parent_14: edge_2_14_0_0 + edge_7_14_0_0 + edge_11_14_0_0
   + edge_13_14_0_0 + edge_15_14_0_0 + edge_16_14_0_0 = 1
 consume_one_flow_unit_14: flow_2_14_0_0 + flow_7_14_0_0 + flow_11_14_0_0
   + flow_13_14_0_0 - flow_14_13_0_0 - flow_14_15_0_0 - flow_14_16_0_0
   - flow_14_17_0_0 + flow_15_14_0_0 + flow_16_14_0_0 = 1
 one_parent_15: edge_2_15_0_0 + edge_5_15_0_0 + edge_7_15_0_0
   + edge_12_15_0_0 + edge_13_15_0_0 + edge_14_15_0_0 + edge_16_15_0_0 = 1
 consume_one_flow_unit_15: flow_2_15_0_0 + flow_5_15_0_0 + flow_7_15_0_0
   + flow_12_15_0_0 + flow_13_15_0_0 + flow_14_15_0_0 - flow_15_1_0_0
   - flow_15_2_0_0 - flow_15_3_0_0 - flow_15_5_0_0 - flow_15_7_0_0
   - flow_15_8_0_0 - flow_15_12_0_0 - flow_15_13_0_0 - flow_15_14_0_0
   - flow_15_17_0_0 + flow_16_15_0_0 = 1
 one_parent_16: edge_0_16_0_0 + edge_2_16_0_0 + edge_3_16_0_0
   + edge_5_16_0_0 + edge_6_16_0_0 + edge_7_16_0_0 + edge_9_16_0_0
   + edge_10_16_0_0 + edge_11_16_0_0 + edge_12_16_0_0 + edge_13_16_0_0
   + edge_14_16_0_0 = 1
 consume_one_flow_unit_16: flow_0_16_0_0 + flow_2_16_0_0 + flow_3_16_0_0
   + flow_5_16_0_0 + flow_6_16_0_0 + flow_7_16_0_0 + flow_9_16_0_0
   + flow_10_16_0_0 + flow_11_16_0_0 + flow_12_16_0_0 + flow_13_16_0_0
   + flow_14_16_0_0 - flow_16_1_0_0 - flow_16_2_0_0 - flow_16_3_0_0
   - flow_16_4_0_0 - flow_16_5_0_0 - flow_16_6_0_0 - flow_16_7_0_0
   - flow_16_8_0_0 - flow_16_9_0_0 - flow_16_10_0_0 - flow_16_11_0_0
   - flow_16_12_0_0 - flow_16_13_0_0 - flow_16_14_0_0 - flow_16_15_0_0
   - flow_16_17_0_0 = 1
 one_parent_17: edge_2_17_0_0 + edge_3_17_0_0 + edge_5_17_0_0
   + edge_6_17_0_0 + edge_7_17_0_0 + edge_9_17_0_0 + edge_10_17_0_0
   + edge_11_17_0_0 + edge_12_17_0_0 + edge_13_17_0_0 + edge_14_17_0_0
   + edge_15_17_0_0 + edge_16_17_0_0 = 1
 consume_one_flow_unit_17: flow_2_17_0_0 + flow_3_17_0_0 + flow_5_17_0_0
   + flow_6_17_0_0 + flow_7_17_0_0 + flow_9_17_0_0 + flow_10_17_0_0
   + flow_11_17_0_0 + flow_12_17_0_0 + flow_13_17_0_0 + flow_14_17_0_0
   + flow_15_17_0_0 + flow_16_17_0_0 = 1
 root_flow: flow_0_1_0_0 + flow_0_2_0_0 + flow_0_3_0_0 + flow_0_5_0_0
   + flow_0_6_0_0 + flow_0_7_0_0 + flow_0_9_0_0 + flow_0_11_0_0
   + flow_0_13_0_0 + flow_0_16_0_0 = 17
 inactive_no_flow_0_1_0_0: flow_0_1_0_0 - 1000 edge_0_1_0_0 <= 0
 inactive_no_flow_0_2_0_0: flow_0_2_0_0 - 1000 edge_0_2_0_0 <= 0
 inactive_no_flow_0_3_0_0: flow_0_3_0_0 - 1000 edge_0_3_0_0 <= 0
 inactive_no_flow_0_5_0_0: flow_0_5_0_0 - 1000 edge_0_5_0_0 <= 0
 inactive_no_flow_0_6_0_0: flow_0_6_0_0 - 1000 edge_0_6_0_0 <= 0
 inactive_no_flow_0_7_0_0: flow_0_7_0_0 - 1000 edge_0_7_0_0 <= 0
 inactive_no_flow_0_9_0_0: flow_0_9_0_0 - 1000 edge_0_9_0_0 <= 0
 inactive_no_flow_0_11_0_0: flow_0_11_0_0 - 1000 edge_0_11_0_0 <= 0
 inactive_no_flow_0_13_0_0: flow_0_13_0_0 - 1000 edge_0_13_0_0 <= 0
 inactive_no_flow_0_16_0_0: flow_0_16_0_0 - 1000 edge_0_16_0_0 <= 0
 inactive_no_flow_1_2_0_0: flow_1_2_0_0 - 1000 edge_1_2_0_0 <= 0
 inactive_no_flow_1_3_0_0: flow_1_3_0_0 - 1000 edge_1_3_0_0 <= 0
 inactive_no_flow_1_5_0_0: flow_1_5_0_0 - 1000 edge_1_5_0_0 <= 0
 inactive_no_flow_1_7_0_0: flow_1_7_0_0 - 1000 edge_1_7_0_0 <= 0
 inactive_no_flow_2_1_0_0: flow_2_1_0_0 - 1000 edge_2_1_0_0 <= 0
 inactive_no_flow_2_3_0_0: flow_2_3_0_0 - 1000 edge_2_3_0_0 <= 0
 inactive_no_flow_2_4_0_0: flow_2_4_0_0 - 1000 edge_2_4_0_0 <= 0
 inactive_no_flow_2_5_0_0: flow_2_5_0_0 - 1000 edge_2_5_0_0 <= 0
 inactive_no_flow_2_6_0_0: flow_2_6_0_0 - 1000 edge_2_6_0_0 <= 0
 inactive_no_flow_2_7_0_0: flow_2_7_0_0 - 1000 edge_2_7_0_0 <= 0
 inactive_no_flow_2_8_0_0: flow_2_8_0_0 - 1000 edge_2_8_0_0 <= 0
 inactive_no_flow_2_9_0_0: flow_2_9_0_0 - 1000 edge_2_9_0_0 <= 0
 inactive_no_flow_2_10_0_0: flow_2_10_0_0 - 1000 edge_2_10_0_0 <= 0
 inactive_no_flow_2_11_0_0: flow_2_11_0_0 - 1000 edge_2_11_0_0 <= 0
 inactive_no_flow_2_12_0_0: flow_2_12_0_0 - 1000 edge_2_12_0_0 <= 0
 inactive_no_flow_2_13_0_0: flow_2_13_0_0 - 1000 edge_2_13_0_0 <= 0
 inactive_no_flow_2_14_0_0: flow_2_14_0_0 - 1000 edge_2_14_0_0 <= 0
 inactive_no_flow_2_15_0_0: flow_2_15_0_0 - 1000 edge_2_15_0_0 <= 0
 inactive_no_flow_2_16_0_0: flow_2_16_0_0 - 1000 edge_2_16_0_0 <= 0
 inactive_no_flow_2_17_0_0: flow_2_17_0_0 - 1000 edge_2_17_0_0 <= 0
 inactive_no_flow_3_1_0_0: flow_3_1_0_0 - 1000 edge_3_1_0_0 <= 0
 inactive_no_flow_3_2_0_0: flow_3_2_0_0 - 1000 edge_3_2_0_0 <= 0
 inactive_no_flow_3_4_0_0: flow_3_4_0_0 - 1000 edge_3_4_0_0 <= 0
 inactive_no_flow_3_5_0_0: flow_3_5_0_0 - 1000 edge_3_5_0_0 <= 0
 inactive_no_flow_3_6_0_0: flow_3_6_0_0 - 1000 edge_3_6_0_0 <= 0
 inactive_no_flow_3_7_0_0: flow_3_7_0_0 - 1000 edge_3_7_0_0 <= 0
 inactive_no_flow_3_8_0_0: flow_3_8_0_0 - 1000 edge_3_8_0_0 <= 0
 inactive_no_flow_3_9_0_0: flow_3_9_0_0 - 1000 edge_3_9_0_0 <= 0
 inactive_no_flow_3_10_0_0: flow_3_10_0_0 - 1000 edge_3_10_0_0 <= 0
 inactive_no_flow_3_11_0_0: flow_3_11_0_0 - 1000 edge_3_11_0_0 <= 0
 inactive_no_flow_3_13_0_0: flow_3_13_0_0 - 1000 edge_3_13_0_0 <= 0
 inactive_no_flow_3_16_0_0: flow_3_16_0_0 - 1000 edge_3_16_0_0 <= 0
 inactive_no_flow_3_17_0_0: flow_3_17_0_0 - 1000 edge_3_17_0_0 <= 0
 inactive_no_flow_4_2_0_0: flow_4_2_0_0 - 1000 edge_4_2_0_0 <= 0
 inactive_no_flow_4_3_0_0: flow_4_3_0_0 - 1000 edge_4_3_0_0 <= 0
 inactive_no_flow_4_5_0_0: flow_4_5_0_0 - 1000 edge_4_5_0_0 <= 0
 inactive_no_flow_4_6_0_0: flow_4_6_0_0 - 1000 edge_4_6_0_0 <= 0
 inactive_no_flow_4_8_0_0: flow_4_8_0_0 - 1000 edge_4_8_0_0 <= 0
 inactive_no_flow_5_1_0_0: flow_5_1_0_0 - 1000 edge_5_1_0_0 <= 0
 inactive_no_flow_5_2_0_0: flow_5_2_0_0 - 1000 edge_5_2_0_0 <= 0
 inactive_no_flow_5_3_0_0: flow_5_3_0_0 - 1000 edge_5_3_0_0 <= 0
 inactive_no_flow_5_4_0_0: flow_5_4_0_0 - 1000 edge_5_4_0_0 <= 0
 inactive_no_flow_5_6_0_0: flow_5_6_0_0 - 1000 edge_5_6_0_0 <= 0
 inactive_no_flow_5_7_0_0: flow_5_7_0_0 - 1000 edge_5_7_0_0 <= 0
 inactive_no_flow_5_8_0_0: flow_5_8_0_0 - 1000 edge_5_8_0_0 <= 0
 inactive_no_flow_5_9_0_0: flow_5_9_0_0 - 1000 edge_5_9_0_0 <= 0
 inactive_no_flow_5_11_0_0: flow_5_11_0_0 - 1000 edge_5_11_0_0 <= 0
 inactive_no_flow_5_12_0_0: flow_5_12_0_0 - 1000 edge_5_12_0_0 <= 0
 inactive_no_flow_5_13_0_0: flow_5_13_0_0 - 1000 edge_5_13_0_0 <= 0
 inactive_no_flow_5_15_0_0: flow_5_15_0_0 - 1000 edge_5_15_0_0 <= 0
 inactive_no_flow_5_16_0_0: flow_5_16_0_0 - 1000 edge_5_16_0_0 <= 0
 inactive_no_flow_5_17_0_0: flow_5_17_0_0 - 1000 edge_5_17_0_0 <= 0
 inactive_no_flow_6_2_0_0: flow_6_2_0_0 - 1000 edge_6_2_0_0 <= 0
 inactive_no_flow_6_3_0_0: flow_6_3_0_0 - 1000 edge_6_3_0_0 <= 0
 inactive_no_flow_6_4_0_0: flow_6_4_0_0 - 1000 edge_6_4_0_0 <= 0
 inactive_no_flow_6_5_0_0: flow_6_5_0_0 - 1000 edge_6_5_0_0 <= 0
 inactive_no_flow_6_7_0_0: flow_6_7_0_0 - 1000 edge_6_7_0_0 <= 0
 inactive_no_flow_6_8_0_0: flow_6_8_0_0 - 1000 edge_6_8_0_0 <= 0
 inactive_no_flow_6_9_0_0: flow_6_9_0_0 - 1000 edge_6_9_0_0 <= 0
 inactive_no_flow_6_10_0_0: flow_6_10_0_0 - 1000 edge_6_10_0_0 <= 0
 inactive_no_flow_6_11_0_0: flow_6_11_0_0 - 1000 edge_6_11_0_0 <= 0
 inactive_no_flow_6_13_0_0: flow_6_13_0_0 - 1000 edge_6_13_0_0 <= 0
 inactive_no_flow_6_16_0_0: flow_6_16_0_0 - 1000 edge_6_16_0_0 <= 0
 inactive_no_flow_6_17_0_0: flow_6_17_0_0 - 1000 edge_6_17_0_0 <= 0
 inactive_no_flow_7_1_0_0: flow_7_1_0_0 - 1000 edge_7_1_0_0 <= 0
 inactive_no_flow_7_2_0_0: flow_7_2_0_0 - 1000 edge_7_2_0_0 <= 0
 inactive_no_flow_7_3_0_0: flow_7_3_0_0 - 1000 edge_7_3_0_0 <= 0
 inactive_no_flow_7_4_0_0: flow_7_4_0_0 - 1000 edge_7_4_0_0 <= 0
 inactive_no_flow_7_5_0_0: flow_7_5_0_0 - 1000 edge_7_5_0_0 <= 0
 inactive_no_flow_7_6_0_0: flow_7_6_0_0 - 1000 edge_7_6_0_0 <= 0
 inactive_no_flow_7_8_0_0: flow_7_8_0_0 - 1000 edge_7_8_0_0 <= 0
 inactive_no_flow_7_9_0_0: flow_7_9_0_0 - 1000 edge_7_9_0_0 <= 0
 inactive_no_flow_7_10_0_0: flow_7_10_0_0 - 1000 edge_7_10_0_0 <= 0
 inactive_no_flow_7_11_0_0: flow_7_11_0_0 - 1000 edge_7_11_0_0 <= 0
 inactive_no_flow_7_12_0_0: flow_7_12_0_0 - 1000 edge_7_12_0_0 <= 0
 inactive_no_flow_7_13_0_0: flow_7_13_0_0 - 1000 edge_7_13_0_0 <= 0
 inactive_no_flow_7_14_0_0: flow_7_14_0_0 - 1000 edge_7_14_0_0 <= 0
 inactive_no_flow_7_15_0_0: flow_7_15_0_0 - 1000 edge_7_15_0_0 <= 0
 inactive_no_flow_7_16_0_0: flow_7_16_0_0 - 1000 edge_7_16_0_0 <= 0
 inactive_no_flow_7_17_0_0: flow_7_17_0_0 - 1000 edge_7_17_0_0 <= 0
 inactive_no_flow_8_5_0_0: flow_8_5_0_0 - 1000 edge_8_5_0_0 <= 0
 inactive_no_flow_8_11_0_0: flow_8_11_0_0 - 1000 edge_8_11_0_0 <= 0
 inactive_no_flow_8_13_0_0: flow_8_13_0_0 - 1000 edge_8_13_0_0 <= 0
 inactive_no_flow_9_2_0_0: flow_9_2_0_0 - 1000 edge_9_2_0_0 <= 0
 inactive_no_flow_9_3_0_0: flow_9_3_0_0 - 1000 edge_9_3_0_0 <= 0
 inactive_no_flow_9_4_0_0: flow_9_4_0_0 - 1000 edge_9_4_0_0 <= 0
 inactive_no_flow_9_5_0_0: flow_9_5_0_0 - 1000 edge_9_5_0_0 <= 0
 inactive_no_flow_9_6_0_0: flow_9_6_0_0 - 1000 edge_9_6_0_0 <= 0
 inactive_no_flow_9_7_0_0: flow_9_7_0_0 - 1000 edge_9_7_0_0 <= 0
 inactive_no_flow_9_8_0_0: flow_9_8_0_0 - 1000 edge_9_8_0_0 <= 0
 inactive_no_flow_9_10_0_0: flow_9_10_0_0 - 1000 edge_9_10_0_0 <= 0
 inactive_no_flow_9_11_0_0: flow_9_11_0_0 - 1000 edge_9_11_0_0 <= 0
 inactive_no_flow_9_13_0_0: flow_9_13_0_0 - 1000 edge_9_13_0_0 <= 0
 inactive_no_flow_9_16_0_0: flow_9_16_0_0 - 1000 edge_9_16_0_0 <= 0
 inactive_no_flow_9_17_0_0: flow_9_17_0_0 - 1000 edge_9_17_0_0 <= 0
 inactive_no_flow_10_9_0_0: flow_10_9_0_0 - 1000 edge_10_9_0_0 <= 0
 inactive_no_flow_10_13_0_0: flow_10_13_0_0 - 1000 edge_10_13_0_0 <= 0
 inactive_no_flow_10_16_0_0: flow_10_16_0_0 - 1000 edge_10_16_0_0 <= 0
 inactive_no_flow_10_17_0_0: flow_10_17_0_0 - 1000 edge_10_17_0_0 <= 0
 inactive_no_flow_11_2_0_0: flow_11_2_0_0 - 1000 edge_11_2_0_0 <= 0
 inactive_no_flow_11_3_0_0: flow_11_3_0_0 - 1000 edge_11_3_0_0 <= 0
 inactive_no_flow_11_4_0_0: flow_11_4_0_0 - 1000 edge_11_4_0_0 <= 0
 inactive_no_flow_11_5_0_0: flow_11_5_0_0 - 1000 edge_11_5_0_0 <= 0
 inactive_no_flow_11_6_0_0: flow_11_6_0_0 - 1000 edge_11_6_0_0 <= 0
 inactive_no_flow_11_7_0_0: flow_11_7_0_0 - 1000 edge_11_7_0_0 <= 0
 inactive_no_flow_11_8_0_0: flow_11_8_0_0 - 1000 edge_11_8_0_0 <= 0
 inactive_no_flow_11_9_0_0: flow_11_9_0_0 - 1000 edge_11_9_0_0 <= 0
 inactive_no_flow_11_10_0_0: flow_11_10_0_0 - 1000 edge_11_10_0_0 <= 0
 inactive_no_flow_11_12_0_0: flow_11_12_0_0 - 1000 edge_11_12_0_0 <= 0
 inactive_no_flow_11_13_0_0: flow_11_13_0_0 - 1000 edge_11_13_0_0 <= 0
 inactive_no_flow_11_14_0_0: flow_11_14_0_0 - 1000 edge_11_14_0_0 <= 0
 inactive_no_flow_11_16_0_0: flow_11_16_0_0 - 1000 edge_11_16_0_0 <= 0
 inactive_no_flow_11_17_0_0: flow_11_17_0_0 - 1000 edge_11_17_0_0 <= 0
 inactive_no_flow_12_1_0_0: flow_12_1_0_0 - 1000 edge_12_1_0_0 <= 0
 inactive_no_flow_12_2_0_0: flow_12_2_0_0 - 1000 edge_12_2_0_0 <= 0
 inactive_no_flow_12_3_0_0: flow_12_3_0_0 - 1000 edge_12_3_0_0 <= 0
 inactive_no_flow_12_5_0_0: flow_12_5_0_0 - 1000 edge_12_5_0_0 <= 0
 inactive_no_flow_12_7_0_0: flow_12_7_0_0 - 1000 edge_12_7_0_0 <= 0
 inactive_no_flow_12_8_0_0: flow_12_8_0_0 - 1000 edge_12_8_0_0 <= 0
 inactive_no_flow_12_9_0_0: flow_12_9_0_0 - 1000 edge_12_9_0_0 <= 0
 inactive_no_flow_12_15_0_0: flow_12_15_0_0 - 1000 edge_12_15_0_0 <= 0
 inactive_no_flow_12_16_0_0: flow_12_16_0_0 - 1000 edge_12_16_0_0 <= 0
 inactive_no_flow_12_17_0_0: flow_12_17_0_0 - 1000 edge_12_17_0_0 <= 0
 inactive_no_flow_13_1_0_0: flow_13_1_0_0 - 1000 edge_13_1_0_0 <= 0
 inactive_no_flow_13_2_0_0: flow_13_2_0_0 - 1000 edge_13_2_0_0 <= 0
 inactive_no_flow_13_3_0_0: flow_13_3_0_0 - 1000 edge_13_3_0_0 <= 0
 inactive_no_flow_13_4_0_0: flow_13_4_0_0 - 1000 edge_13_4_0_0 <= 0
 inactive_no_flow_13_5_0_0: flow_13_5_0_0 - 1000 edge_13_5_0_0 <= 0
 inactive_no_flow_13_6_0_0: flow_13_6_0_0 - 1000 edge_13_6_0_0 <= 0
 inactive_no_flow_13_7_0_0: flow_13_7_0_0 - 1000 edge_13_7_0_0 <= 0
 inactive_no_flow_13_8_0_0: flow_13_8_0_0 - 1000 edge_13_8_0_0 <= 0
 inactive_no_flow_13_9_0_0: flow_13_9_0_0 - 1000 edge_13_9_0_0 <= 0
 inactive_no_flow_13_10_0_0: flow_13_10_0_0 - 1000 edge_13_10_0_0 <= 0
 inactive_no_flow_13_11_0_0: flow_13_11_0_0 - 1000 edge_13_11_0_0 <= 0
 inactive_no_flow_13_12_0_0: flow_13_12_0_0 - 1000 edge_13_12_0_0 <= 0
 inactive_no_flow_13_14_0_0: flow_13_14_0_0 - 1000 edge_13_14_0_0 <= 0
 inactive_no_flow_13_15_0_0: flow_13_15_0_0 - 1000 edge_13_15_0_0 <= 0
 inactive_no_flow_13_16_0_0: flow_13_16_0_0 - 1000 edge_13_16_0_0 <= 0
 inactive_no_flow_13_17_0_0: flow_13_17_0_0 - 1000 edge_13_17_0_0 <= 0
 inactive_no_flow_14_13_0_0: flow_14_13_0_0 - 1000 edge_14_13_0_0 <= 0
 inactive_no_flow_14_15_0_0: flow_14_15_0_0 - 1000 edge_14_15_0_0 <= 0
 inactive_no_flow_14_16_0_0: flow_14_16_0_0 - 1000 edge_14_16_0_0 <= 0
 inactive_no_flow_14_17_0_0: flow_14_17_0_0 - 1000 edge_14_17_0_0 <= 0
 inactive_no_flow_15_1_0_0: flow_15_1_0_0 - 1000 edge_15_1_0_0 <= 0
 inactive_no_flow_15_2_0_0: flow_15_2_0_0 - 1000 edge_15_2_0_0 <= 0
 inactive_no_flow_15_3_0_0: flow_15_3_0_0 - 1000 edge_15_3_0_0 <= 0
 inactive_no_flow_15_5_0_0: flow_15_5_0_0 - 1000 edge_15_5_0_0 <= 0
 inactive_no_flow_15_7_0_0: flow_15_7_0_0 - 1000 edge_15_7_0_0 <= 0
 inactive_no_flow_15_8_0_0: flow_15_8_0_0 - 1000 edge_15_8_0_0 <= 0
 inactive_no_flow_15_12_0_0: flow_15_12_0_0 - 1000 edge_15_12_0_0 <= 0
 inactive_no_flow_15_13_0_0: flow_15_13_0_0 - 1000 edge_15_13_0_0 <= 0
 inactive_no_flow_15_14_0_0: flow_15_14_0_0 - 1000 edge_15_14_0_0 <= 0
 inactive_no_flow_15_17_0_0: flow_15_17_0_0 - 1000 edge_15_17_0_0 <= 0
 inactive_no_flow_16_1_0_0: flow_16_1_0_0 - 1000 edge_16_1_0_0 <= 0
 inactive_no_flow_16_2_0_0: flow_16_2_0_0 - 1000 edge_16_2_0_0 <= 0
 inactive_no_flow_16_3_0_0: flow_16_3_0_0 - 1000 edge_16_3_0_0 <= 0
 inactive_no_flow_16_4_0_0: flow_16_4_0_0 - 1000 edge_16_4_0_0 <= 0
 inactive_no_flow_16_5_0_0: flow_16_5_0_0 - 1000 edge_16_5_0_0 <= 0
 inactive_no_flow_16_6_0_0: flow_16_6_0_0 - 1000 edge_16_6_0_0 <= 0
 inactive_no_flow_16_7_0_0: flow_16_7_0_0 - 1000 edge_16_7_0_0 <= 0
 inactive_no_flow_16_8_0_0: flow_16_8_0_0 - 1000 edge_16_8_0_0 <= 0
 inactive_no_flow_16_9_0_0: flow_16_9_0_0 - 1000 edge_16_9_0_0 <= 0
 inactive_no_flow_16_10_0_0: flow_16_10_0_0 - 1000 edge_16_10_0_0 <= 0
 inactive_no_flow_16_11_0_0: flow_16_11_0_0 - 1000 edge_16_11_0_0 <= 0
 inactive_no_flow_16_12_0_0: flow_16_12_0_0 - 1000 edge_16_12_0_0 <= 0
 inactive_no_flow_16_13_0_0: flow_16_13_0_0 - 1000 edge_16_13_0_0 <= 0
 inactive_no_flow_16_14_0_0: flow_16_14_0_0 - 1000 edge_16_14_0_0 <= 0
 inactive_no_flow_16_15_0_0: flow_16_15_0_0 - 1000 edge_16_15_0_0 <= 0
 inactive_no_flow_16_17_0_0: flow_16_17_0_0 - 1000 edge_16_17_0_0 <= 0
Bounds
Binaries
 edge_0_1_0_0 edge_0_2_0_0 edge_0_3_0_0 edge_0_5_0_0 edge_0_6_0_0
 edge_0_7_0_0 edge_0_9_0_0 edge_0_11_0_0 edge_0_13_0_0 edge_0_16_0_0
 edge_1_2_0_0 edge_1_3_0_0 edge_1_5_0_0 edge_1_7_0_0 edge_2_1_0_0
 edge_2_3_0_0 edge_2_4_0_0 edge_2_5_0_0 edge_2_6_0_0 edge_2_7_0_0
 edge_2_8_0_0 edge_2_9_0_0 edge_2_10_0_0 edge_2_11_0_0 edge_2_12_0_0
 edge_2_13_0_0 edge_2_14_0_0 edge_2_15_0_0 edge_2_16_0_0 edge_2_17_0_0
 edge_3_1_0_0 edge_3_2_0_0 edge_3_4_0_0 edge_3_5_0_0 edge_3_6_0_0
 edge_3_7_0_0 edge_3_8_0_0 edge_3_9_0_0 edge_3_10_0_0 edge_3_11_0_0
 edge_3_13_0_0 edge_3_16_0_0 edge_3_17_0_0 edge_4_2_0_0 edge_4_3_0_0
 edge_4_5_0_0 edge_4_6_0_0 edge_4_8_0_0 edge_5_1_0_0 edge_5_2_0_0
 edge_5_3_0_0 edge_5_4_0_0 edge_5_6_0_0 edge_5_7_0_0 edge_5_8_0_0
 edge_5_9_0_0 edge_5_11_0_0 edge_5_12_0_0 edge_5_13_0_0 edge_5_15_0_0
 edge_5_16_0_0 edge_5_17_0_0 edge_6_2_0_0 edge_6_3_0_0 edge_6_4_0_0
 edge_6_5_0_0 edge_6_7_0_0 edge_6_8_0_0 edge_6_9_0_0 edge_6_10_0_0
 edge_6_11_0_0 edge_6_13_0_0 edge_6_16_0_0 edge_6_17_0_0 edge_7_1_0_0
 edge_7_2_0_0 edge_7_3_0_0 edge_7_4_0_0 edge_7_5_0_0 edge_7_6_0_0
 edge_7_8_0_0 edge_7_9_0_0 edge_7_10_0_0 edge_7_11_0_0 edge_7_12_0_0
 edge_7_13_0_0 edge_7_14_0_0 edge_7_15_0_0 edge_7_16_0_0 edge_7_17_0_0
 edge_8_5_0_0 edge_8_11_0_0 edge_8_13_0_0 edge_9_2_0_0 edge_9_3_0_0
 edge_9_4_0_0 edge_9_5_0_0 edge_9_6_0_0 edge_9_7_0_0 edge_9_8_0_0
 edge_9_10_0_0 edge_9_11_0_0 edge_9_13_0_0 edge_9_16_0_0 edge_9_17_0_0
 edge_10_9_0_0 edge_10_13_0_0 edge_10_16_0_0 edge_10_17_0_0 edge_11_2_0_0
 edge_11_3_0_0 edge_11_4_0_0 edge_11_5_0_0 edge_11_6_0_0 edge_11_7_0_0
 edge_11_8_0_0 edge_11_9_0_0 edge_11_10_0_0 edge_11_12_0_0 edge_11_13_0_0
 edge_11_14_0_0 edge_11_16_0_0 edge_11_17_0_0 edge_12_1_0_0 edge_12_2_0_0
 edge_12_3_0_0 edge_12_5_0_0 edge_12_7_0_0 edge_12_8_0_0 edge_12_9_0_0
 edge_12_15_0_0 edge_12_16_0_0 edge_12_17_0_0 edge_13_1_0_0 edge_13_2_0_0
 edge_13_3_0_0 edge_13_4_0_0 edge_13_5_0_0 edge_13_6_0_0 edge_13_7_0_0
 edge_13_8_0_0 edge_13_9_0_0 edge_13_10_0_0 edge_13_11_0_0 edge_13_12_0_0
 edge_13_14_0_0 edge_13_15_0_0 edge_13_16_0_0 edge_13_17_0_0 edge_14_13_0_0
 edge_14_15_0_0 edge_14_16_0_0 edge_14_17_0_0 edge_15_1_0_0 edge_15_2_0_0
 edge_15_3_0_0 edge_15_5_0_0 edge_15_7_0_0 edge_15_8_0_0 edge_15_12_0_0
 edge_15_13_0_0 edge_15_14_0_0 edge_15_17_0_0 edge_16_1_0_0 edge_16_2_0_0
 edge_16_3_0_0 edge_16_4_0_0 edge_16_5_0_0 edge_16_6_0_0 edge_16_7_0_0
 edge_16_8_0_0 edge_16_9_0_0 edge_16_10_0_0 edge_16_11_0_0 edge_16_12_0_0
 edge_16_13_0_0 edge_16_14_0_0 edge_16_15_0_0 edge_16_17_0_0
End
